Problem:    
Rows:       260
Columns:    89 (72 integer, 72 binary)
Non-zeros:  812
Status:     INTEGER OPTIMAL
Objective:  value = 44.125234 (MINimum)

   No.   Row name        Activity     Lower bound   Upper bound
------ ------------    ------------- ------------- -------------
     1 r.5                   1044.13             0               
     2 r.6                  -985.528      -990.589               
     3 r.7                   44.1252             0               
     4 r.8                   14.4716      -980.084               
     5 r.9                   44.1252             0               
     6 r.10                  28.9616      -990.598               
     7 r.11                  1044.13             0               
     8 r.12                 -971.038      -980.062               
     9 r.13                  44.1252             0               
    10 r.14                  14.4716      -999.408               
    11 r.15                  1044.13             0               
    12 r.16                 -994.245      -998.546               
    13 r.17                  44.1252             0               
    14 r.18                  28.9616      -998.943               
    15 r.19                  1044.13             0               
    16 r.20                 -995.699      -996.323               
    17 r.21                  1044.13             0               
    18 r.22                 -994.939      -995.564               
    19 r.23                  44.1252             0               
    20 r.24                 -990.089      -990.713               
    21 r.25                  1044.13             0               
    22 r.26                 -999.375      -999.375               
    23 r.27                  44.1252             0               
    24 r.28                   0.6246      -998.646               
    25 r.29                  1044.13             0               
    26 r.30                 -955.875      -984.836               
    27 r.31                  44.1252             0               
    28 r.32                  44.1252      -961.678               
    29 r.33                  1044.13             0               
    30 r.34                 -971.038       -985.51               
    31 r.35                  44.1252             0               
    32 r.36                  44.1252      -962.718               
    33 r.37                        1             1             = 
    34 r.38                        1             1             = 
    35 r.39                        1             1             = 
    36 r.40                        1             1             = 
    37 r.41                        1             1             = 
    38 r.42                        1             1             = 
    39 r.43                        1             1             = 
    40 r.44                        1             1             = 
    41 r.45                     1001             2               
    42 r.46                    -1001         -1001               
    43 r.47                  2014.49      -990.598               
    44 r.48                     1001             2               
    45 r.49                    -1001         -1001               
    46 r.50                  2014.49      -980.062               
    47 r.51                     1001             2               
    48 r.52                    -1001         -1001               
    49 r.53                     2000      -999.408               
    50 r.54                     1001             2               
    51 r.55                    -1001         -1001               
    52 r.56                  1991.28      -998.546               
    53 r.57                     1001             2               
    54 r.58                    -1001         -1001               
    55 r.59                  2014.49      -998.943               
    56 r.60                     1001             2               
    57 r.61                    -1001         -1001               
    58 r.62                  1989.83      -996.323               
    59 r.63                        2             2               
    60 r.64                       -2         -1001               
    61 r.65                 -9.41058      -995.564               
    62 r.66                     1000             2               
    63 r.67                    -1000         -1001               
    64 r.68                   995.44      -990.713               
    65 r.69                 -986.153      -990.589               
    66 r.70                   13.847      -980.084               
    67 r.71                 -986.153      -990.589               
    68 r.72                   13.847      -980.084               
    69 r.73                 -970.346      -984.836               
    70 r.74                  29.6536      -961.678               
    71 r.75                 -970.346      -984.836               
    72 r.76                  29.6536      -961.678               
    73 r.77                  -985.51       -985.51               
    74 r.78                  29.6536      -962.718               
    75 r.79                  -985.51       -985.51               
    76 r.80                  29.6536      -962.718               
    77 r.81                     1001             2               
    78 r.82                    -1001         -1001               
    79 r.83                  1985.51       9.41058               
    80 r.84                     1001             2               
    81 r.85                    -1001         -1001               
    82 r.86                  1985.51        19.916               
    83 r.87                     1000             2               
    84 r.88                    -1000         -1001               
    85 r.89                  1985.51      -999.408               
    86 r.90                        2             2               
    87 r.91                       -2         -1001               
    88 r.92                 -23.2062      -998.546               
    89 r.93                     1000             2               
    90 r.94                    -1000         -1001               
    91 r.95                     2000      -998.943               
    92 r.96                        2             2               
    93 r.97                       -2         -1001               
    94 r.98                 -24.6602      -996.323               
    95 r.99                     1001             2               
    96 r.100                   -1001         -1001               
    97 r.101                  1976.1      -995.564               
    98 r.102                    1001             2               
    99 r.103                   -1001         -1001               
   100 r.104                  980.95      -990.713               
   101 r.105                  28.337      -990.598               
   102 r.106                -971.663      -980.062               
   103 r.107                  28.337      -990.598               
   104 r.108                -971.663      -980.062               
   105 r.109                -984.836      -984.836               
   106 r.110                 15.1636      -961.678               
   107 r.111                -984.836      -984.836               
   108 r.112                 15.1636      -961.678               
   109 r.113                    1001             2               
   110 r.114                   -1001         -1001               
   111 r.115                    2000       -985.51               
   112 r.116                    1001             2               
   113 r.117                   -1001         -1001               
   114 r.118                 2015.16      -962.718               
   115 r.119                    1001             2               
   116 r.120                   -1001         -1001               
   117 r.121                    2000       9.41058               
   118 r.122                    1001             2               
   119 r.123                   -1001         -1001               
   120 r.124                 2008.72        19.916               
   121 r.125                    1000             2               
   122 r.126                   -1000         -1001               
   123 r.127                 2014.49       9.40232               
   124 r.128                       2             2               
   125 r.129                      -2         -1001               
   126 r.130                 23.2062       19.9378               
   127 r.131                    1000             2               
   128 r.132                   -1000         -1001               
   129 r.133                 2014.49      -998.943               
   130 r.134                       2             2               
   131 r.135                      -2         -1001               
   132 r.136                -1.45396      -996.323               
   133 r.137                    1001             2               
   134 r.138                   -1001         -1001               
   135 r.139                 1990.59      -995.564               
   136 r.140                    1001             2               
   137 r.141                   -1001         -1001               
   138 r.142                 1004.16      -990.713               
   139 r.143                  13.847      -999.408               
   140 r.144                -994.869      -998.546               
   141 r.145                  13.847      -999.408               
   142 r.146                -994.869      -998.546               
   143 r.147                -970.346      -984.836               
   144 r.148                 29.6536      -961.678               
   145 r.149                 -961.63      -984.836               
   146 r.150                 38.3698      -961.678               
   147 r.151                 -985.51       -985.51               
   148 r.152                 29.6536      -962.718               
   149 r.153                -976.794       -985.51               
   150 r.154                 38.3698      -962.718               
   151 r.155                    1001             2               
   152 r.156                   -1001         -1001               
   153 r.157                 1985.51       9.41058               
   154 r.158                    1001             2               
   155 r.159                   -1001         -1001               
   156 r.160                 2010.17        19.916               
   157 r.161                    1000             2               
   158 r.162                   -1000         -1001               
   159 r.163                    2000       9.40232               
   160 r.164                       2             2               
   161 r.165                      -2         -1001               
   162 r.166                 24.6602       19.9378               
   163 r.167                    1000             2               
   164 r.168                   -1000         -1001               
   165 r.169                 1985.51      0.591867               
   166 r.170                       2             2               
   167 r.171                      -2         -1001               
   168 r.172                 1.45396       1.45396               
   169 r.173                    1001             2               
   170 r.174                   -1001         -1001               
   171 r.175                  1976.1      -995.564               
   172 r.176                    1001             2               
   173 r.177                   -1001         -1001               
   174 r.178                 1005.61      -990.713               
   175 r.179                  28.337      -998.943               
   176 r.180                -996.323      -996.323               
   177 r.181                  28.337      -998.943               
   178 r.182                -996.323      -996.323               
   179 r.183                -984.836      -984.836               
   180 r.184                 15.1636      -961.678               
   181 r.185                -960.176      -984.836               
   182 r.186                 39.8238      -961.678               
   183 r.187                    1001             2               
   184 r.188                   -1001         -1001               
   185 r.189                    2000       -985.51               
   186 r.190                    1001             2               
   187 r.191                   -1001         -1001               
   188 r.192                 2039.82      -962.718               
   189 r.193                       2             2               
   190 r.194                      -2         -1001               
   191 r.195                 9.41058       9.41058               
   192 r.196                    1000             2               
   193 r.197                   -1000         -1001               
   194 r.198                 3004.56        19.916               
   195 r.199                    1001             2               
   196 r.200                   -1001         -1001               
   197 r.201                  2023.9       9.40232               
   198 r.202                    1001             2               
   199 r.203                   -1001         -1001               
   200 r.204                 3019.05       19.9378               
   201 r.205                    1001             2               
   202 r.206                   -1001         -1001               
   203 r.207                 2009.41      0.591867               
   204 r.208                    1001             2               
   205 r.209                   -1001         -1001               
   206 r.210                 2995.84       1.45396               
   207 r.211                    1001             2               
   208 r.212                   -1001         -1001               
   209 r.213                  2023.9       1.05723               
   210 r.214                    1001             2               
   211 r.215                   -1001         -1001               
   212 r.216                 2994.39       3.67688               
   213 r.217                -995.564      -995.564               
   214 r.218                -990.713      -990.713               
   215 r.219                -995.564      -995.564               
   216 r.220                -990.713      -990.713               
   217 r.221                       2             2               
   218 r.222                      -2         -1001               
   219 r.223                -960.936      -984.836               
   220 r.224                    1000             2               
   221 r.225                   -1000         -1001               
   222 r.226                 3034.21      -961.678               
   223 r.227                -976.099       -985.51               
   224 r.228                 39.0642      -962.718               
   225 r.229                 19.0504       -985.51               
   226 r.230                 1034.21      -962.718               
   227 r.231                -956.499      -984.836               
   228 r.232                 43.5006      -961.678               
   229 r.233                -956.499      -984.836               
   230 r.234                 43.5006      -961.678               
   231 r.235                       2             2               
   232 r.236                      -2         -1001               
   233 r.237                 960.936       4.43646               
   234 r.238                    1000             2               
   235 r.239                   -1000         -1001               
   236 r.240                 965.786       9.28664               
   237 r.241                       2             2               
   238 r.242                      -2         -1001               
   239 r.243                -15.1636       -985.51               
   240 r.244                    1000             2               
   241 r.245                   -1000         -1001               
   242 r.246                    2000      -962.718               
   243 r.247                    1001             2               
   244 r.248                   -1001         -1001               
   245 r.249                    2000       9.40232               
   246 r.250                    1001             2               
   247 r.251                   -1001         -1001               
   248 r.252                 1984.84       19.9378               
   249 r.253                    1001             2               
   250 r.254                   -1001         -1001               
   251 r.255                    2000       1.05723               
   252 r.256                    1001             2               
   253 r.257                   -1001         -1001               
   254 r.258                 1960.18       3.67688               
   255 r.259                       2             2               
   256 r.260                      -2         -1001               
   257 r.261                 15.1636       15.1636               
   258 r.262                    1000             2               
   259 r.263                   -1000         -1001               
   260 r.264                    2000        38.322               

   No. Column name       Activity     Lower bound   Upper bound
------ ------------    ------------- ------------- -------------
     1 tt                    44.1252             0               
     2 s_1_1        *              1             0             1 
     3 t_1_1                 29.6536             0               
     4 s_1_8        *              1             0             1 
     5 s_1_7        *              1             0             1 
     6 s_2_1        *              0             0             1 
     7 t_2_1                 29.6536             0               
     8 s_2_8        *              0             0             1 
     9 s_2_7        *              0             0             1 
    10 s_1_2        *              0             0             1 
    11 t_1_2                 15.1636             0               
    12 s_2_2        *              1             0             1 
    13 t_2_2                 15.1636             0               
    14 s_1_3        *              0             0             1 
    15 t_1_3                 29.6536             0               
    16 s_2_3        *              1             0             1 
    17 t_2_3                 38.3698             0               
    18 s_1_4        *              0             0             1 
    19 t_1_4                 15.1636             0               
    20 s_2_4        *              1             0             1 
    21 t_2_4                 39.8238             0               
    22 s_1_5        *              1             0             1 
    23 t_1_5                 39.0642             0               
    24 s_2_5        *              0             0             1 
    25 t_2_5                 1034.21             0               
    26 s_1_6        *              1             0             1 
    27 t_1_6                 43.5006             0               
    28 s_2_6        *              0             0             1 
    29 t_2_6                 43.5006             0               
    30 t_1_7                       0             0               
    31 t_2_7                       0             0               
    32 t_1_8                 15.1636             0               
    33 t_2_8                       0             0               
    34 r_1_1_2      *              1             0             1 
    35 u_1_1_2      *              0             0             1 
    36 r_2_1_2      *              1             0             1 
    37 u_2_1_2      *              0             0             1 
    38 r_1_1_3      *              1             0             1 
    39 u_1_1_3      *              0             0             1 
    40 r_2_1_3      *              1             0             1 
    41 u_2_1_3      *              0             0             1 
    42 r_1_1_4      *              1             0             1 
    43 u_1_1_4      *              0             0             1 
    44 r_2_1_4      *              1             0             1 
    45 u_2_1_4      *              0             0             1 
    46 r_1_1_5      *              0             0             1 
    47 u_1_1_5      *              0             0             1 
    48 r_2_1_5      *              1             0             1 
    49 u_2_1_5      *              0             0             1 
    50 r_1_2_3      *              1             0             1 
    51 u_1_2_3      *              0             0             1 
    52 r_2_2_3      *              0             0             1 
    53 u_2_2_3      *              0             0             1 
    54 r_1_2_4      *              1             0             1 
    55 u_1_2_4      *              0             0             1 
    56 r_2_2_4      *              0             0             1 
    57 u_2_2_4      *              0             0             1 
    58 r_1_2_5      *              1             0             1 
    59 u_1_2_5      *              0             0             1 
    60 r_2_2_5      *              1             0             1 
    61 u_2_2_5      *              0             0             1 
    62 r_1_2_8      *              1             0             1 
    63 u_1_2_8      *              0             0             1 
    64 r_2_2_8      *              1             0             1 
    65 u_2_2_8      *              0             0             1 
    66 r_1_3_4      *              1             0             1 
    67 u_1_3_4      *              0             0             1 
    68 r_2_3_4      *              0             0             1 
    69 u_2_3_4      *              0             0             1 
    70 r_1_3_5      *              1             0             1 
    71 u_1_3_5      *              0             0             1 
    72 r_2_3_5      *              1             0             1 
    73 u_2_3_5      *              0             0             1 
    74 r_1_4_5      *              1             0             1 
    75 u_1_4_5      *              0             0             1 
    76 r_2_4_5      *              1             0             1 
    77 u_2_4_5      *              0             0             1 
    78 r_1_4_8      *              1             0             1 
    79 u_1_4_8      *              0             0             1 
    80 r_2_4_8      *              1             0             1 
    81 u_2_4_8      *              0             0             1 
    82 r_1_5_7      *              0             0             1 
    83 u_1_5_7      *              1             0             1 
    84 r_2_5_7      *              1             0             1 
    85 u_2_5_7      *              0             0             1 
    86 r_1_7_8      *              0             0             1 
    87 u_1_7_8      *              0             0             1 
    88 r_2_7_8      *              1             0             1 
    89 u_2_7_8      *              0             0             1 

Integer feasibility conditions:

KKT.PE: max.abs.err = 4.55e-13 on row 194
        max.rel.err = 1.09e-16 on row 12
        High quality

KKT.PB: max.abs.err = 1.14e-13 on row 22
        max.rel.err = 7.69e-16 on row 257
        High quality

End of output
